    1: suppressMessages
--- Job GAMS_Graph_Pyrolysis2.gms Start 10/14/25 16:00:11 49.6.1 55d34574 WEX-WEI x86 64bit/MS Windows
--- Applying:
    C:\GAMS\49\gmsprmNT.txt
--- GAMS Parameters defined
    Input C:\Users\ronnie\Documents\GAMS\Studio\workspace\Pyro\GAMS_Graph_Pyrolysis2.gms
    PageSize 0
    ScrDir C:\Users\ronnie\Documents\GAMS\Studio\workspace\Pyro\225a\
    SysDir C:\GAMS\49\
    LogOption 3
    ErrMsg 1
    ErrorLog 99
    IDE 1
    LstTitleLeftAligned 1
    IDCGenerateJSON conf_gams_graph_pyrolysis2/gams_graph_pyrolysis2_io.json
    IDCGenerateGDX data_gams_graph_pyrolysis2/default.gdx
Licensee: Large MUD - 20 User License                    S231215|0002AN-WIN
          Leibniz-Zentrum fuer Agrarlandschaftsforschung (ZALF) e. V.DC8734
          C:\Users\ronnie\Documents\GAMS\gamslice.txt
          License Admin: Peter Zander, Peter.Zander@zalf.de                
          The maintenance period of the license will expire on Apr 03, 2026
System information: 10 physical cores and 16 Gb memory detected
GAMS 49.6.1   Copyright (C) 1987-2025 GAMS Development. All rights reserved
--- Starting compilation
--- GAMS_Graph_Pyrolysis2.gms(130) 3 Mb
--- Starting execution: elapsed 0:00:00.037
--- GAMS_Graph_Pyrolysis2.gms(35) 4 Mb
--- Generating LP model BiocharProfit
--- GAMS_Graph_Pyrolysis2.gms(36) 4 Mb
---   1 rows  1 columns  1 non-zeroes
--- Range statistics (absolute non-zero finite values)
--- RHS       [min, max] : [ 3.010E+04, 3.010E+04]
--- Bound     [min, max] : [        NA,        NA]
--- Matrix    [min, max] : [ 1.000E+00, 1.000E+00]
--- Executing CPLEX (Solvelink=2): elapsed 0:00:00.068

IBM ILOG CPLEX   49.6.1 55d34574 May 28, 2025          WEI x86 64bit/MS Window

--- GAMS/CPLEX licensed for continuous and discrete problems.
--- GMO setup time: 0.00s
--- GMO memory 0.50 Mb (peak 0.50 Mb)
--- Dictionary memory 0.00 Mb
--- Cplex 22.1.2.0 link memory 0.00 Mb (peak 0.00 Mb)
--- Starting Cplex

Version identifier: 22.1.2.0 | 2024-11-25 | 0edbb82fd
CPXPARAM_Advance                                 0
CPXPARAM_Simplex_Display                         2
CPXPARAM_MIP_Display                             4
CPXPARAM_MIP_Pool_Capacity                       0
CPXPARAM_MIP_Tolerances_AbsMIPGap                0
Tried aggregator 1 time.
LP Presolve eliminated 1 rows and 2 columns.
All rows and columns eliminated.
Presolve time = 0.00 sec. (0.00 ticks)

--- LP status (1): optimal.
--- Cplex Time: 0.00sec (det. 0.00 ticks)


Optimal solution found
Objective:        30100.000000

--- Reading solution for model BiocharProfit
--- Executing after solve: elapsed 0:00:00.312
--- GAMS_Graph_Pyrolysis2.gms(130) 7 Mb
--- GDX File (execute_unload) C:\Users\ronnie\Documents\GAMS\Studio\workspace\Pyro\results.gdx
--- Putfile fSurf C:\Users\ronnie\Documents\GAMS\Studio\workspace\Pyro\profit_surface.csv
--- Putfile fCD C:\Users\ronnie\Documents\GAMS\Studio\workspace\Pyro\curve_distance.csv
--- Putfile fCP C:\Users\ronnie\Documents\GAMS\Studio\workspace\Pyro\curve_price.csv
--- GDX File C:\Users\ronnie\Documents\GAMS\Studio\workspace\Pyro\data_gams_graph_pyrolysis2\default.gdx
*** Status: Normal completion
--- Job GAMS_Graph_Pyrolysis2.gms Stop 10/14/25 16:00:11 elapsed 0:00:00.332

INFO [2025-10-14 16:00:21] Data: 'default.gdx' skipped because it has not changed since the last start.
Warning: Error in : X axis data could not be identified as dates. Try: yyyy-mm-dd format.110: stop
  109: value[[3L]]
  108: tryCatchOne
  107: tryCatchList
  106: tryCatch
  105: FUN
  104: lapply
  103: ::
htmlwidgets
shinyRenderWidget
  102: func
   89: renderFunc
   88: output$preview_output_dygraphs-graph
    3: shiny::runApp
    2: withCallingHandlers
    1: suppressMessagesWarning: Error in : X axis data could not be identified as dates. Try: yyyy-mm-dd format.110: stop
  109: value[[3L]]
  108: tryCatchOne
  107: tryCatchList
  106: tryCatch
  105: FUN
  104: lapply
  103: ::
htmlwidgets
shinyRenderWidget
  102: func
   89: renderFunc
   88: output$preview_output_dygraphs-graph
    3: shiny::runApp
    2: withCallingHandlers
    1: suppressMessagesWarning: Error in : X axis data could not be identified as dates. Try: yyyy-mm-dd format.110: stop
  109: value[[3L]]
  108: tryCatchOne
  107: tryCatchList
  106: tryCatch
  105: FUN
  104: lapply
  103: ::
htmlwidgets
shinyRenderWidget
  102: func
   89: renderFunc
   88: output$preview_output_dygraphs-graph
    3: shiny::runApp
    2: withCallingHandlers
    1: suppressMessagesWarning: Error in : X axis data could not be identified as dates. Try: yyyy-mm-dd format.110: stop
  109: value[[3L]]
  108: tryCatchOne
  107: tryCatchList
  106: tryCatch
  105: FUN
  104: lapply
  103: ::
htmlwidgets
shinyRenderWidget
  102: func
   89: renderFunc
   88: output$preview_output_dygraphs-graph
    3: shiny::runApp
    2: withCallingHandlers
